100
100
3000 3000 3000 3000 3000 3000 3000 3000 3000 3000 3000 3000 3000 3000 3000 3000 3000 3000 3000 3000 3000 3000 3000 3000 3000 3000 3000 3000 3000 3000 3000 3000 3000 3000 3000 3000 3000 3000 3000 3000 3000 3000 3000 3000 3000 3000 3000 3000 3000 3000 3000 3000 3000 3000 3000 3000 3000 3000 3000 3000 3000 3000 3000 3000 3000 3000 3000 3000 3000 3000 3000 3000 3000 3000 3000 3000 3000 3000 3000 3000 3000 3000 3000 3000 3000 3000 3000 3000 3000 3000 3000 3000 3000 3000 3000 3000 3000 3000 3000 3000
0 3 4
0 30 0
0 34 4
0 40 1
0 79 2
0 82 3
0 91 0
0 92 2
0 98 2
0 99 1
1 6 4
1 8 4
1 15 0
1 18 2
1 50 3
1 76 3
1 88 4
1 91 1
1 92 4
1 95 0
2 0 0
2 43 3
2 55 3
2 61 2
2 66 2
2 68 1
2 70 0
2 83 4
2 88 0
2 96 3
3 3 0
3 13 4
3 20 2
3 46 1
3 60 1
3 70 3
3 73 1
3 82 0
3 91 4
3 93 0
4 0 1
4 4 4
4 20 2
4 29 1
4 47 1
4 62 3
4 68 1
4 74 3
4 77 3
4 78 2
5 1 1
5 15 0
5 20 0
5 24 2
5 35 3
5 42 3
5 45 4
5 49 2
5 64 3
5 72 0
6 1 1
6 5 1
6 23 0
6 27 0
6 36 1
6 44 4
6 51 4
6 63 0
6 68 3
6 77 3
7 17 0
7 32 1
7 48 4
7 51 1
7 52 4
7 57 1
7 60 0
7 61 2
7 64 1
7 66 2
8 24 1
8 25 3
8 26 4
8 46 2
8 54 4
8 60 2
8 77 2
8 80 2
8 86 0
8 90 1
9 12 1
9 14 1
9 15 2
9 16 2
9 19 0
9 38 2
9 42 1
9 57 1
9 58 2
9 74 0
10 1 3
10 2 4
10 28 2
10 31 4
10 43 4
10 45 2
10 71 0
10 76 3
10 77 0
10 78 3
11 8 1
11 10 3
11 12 3
11 20 4
11 34 1
11 36 3
11 45 3
11 46 3
11 48 1
11 52 1
12 11 0
12 12 1
12 16 0
12 19 0
12 23 1
12 38 4
12 39 3
12 65 1
12 67 3
12 83 3
13 9 4
13 13 1
13 41 4
13 47 2
13 52 1
13 64 0
13 65 2
13 72 4
13 79 4
13 94 3
14 5 0
14 27 3
14 30 1
14 37 3
14 41 3
14 67 1
14 68 0
14 70 0
14 74 4
14 77 2
15 2 1
15 30 1
15 31 1
15 33 2
15 35 0
15 69 1
15 75 2
15 77 3
15 80 1
15 81 3
16 0 3
16 12 0
16 17 3
16 60 2
16 61 4
16 63 2
16 64 3
16 84 1
16 87 0
16 92 3
17 1 3
17 5 4
17 11 4
17 16 2
17 24 3
17 28 0
17 31 2
17 39 4
17 46 4
17 52 1
18 1 2
18 42 4
18 49 0
18 59 0
18 60 0
18 63 0
18 71 4
18 82 3
18 84 4
18 89 1
19 2 3
19 18 2
19 26 0
19 53 0
19 54 3
19 73 0
19 88 0
19 93 0
19 95 2
19 97 0
20 9 2
20 10 4
20 21 4
20 42 0
20 47 3
20 50 3
20 54 0
20 65 0
20 72 4
20 80 1
21 6 0
21 15 0
21 37 3
21 38 3
21 41 0
21 43 3
21 51 3
21 53 4
21 66 3
21 71 1
22 13 1
22 31 0
22 50 3
22 58 1
22 59 3
22 64 1
22 67 2
22 70 4
22 94 1
22 97 0
23 0 1
23 6 2
23 8 0
23 41 0
23 58 1
23 70 4
23 78 4
23 85 3
23 86 4
23 90 2
24 19 4
24 21 2
24 39 3
24 44 3
24 48 1
24 57 3
24 61 0
24 64 3
24 78 3
24 85 4
25 13 2
25 19 4
25 22 2
25 28 2
25 40 4
25 51 1
25 71 4
25 75 0
25 78 4
25 88 2
26 2 4
26 3 1
26 14 3
26 19 3
26 25 4
26 38 2
26 53 0
26 62 1
26 65 2
26 68 3
27 10 4
27 20 0
27 70 1
27 71 0
27 78 0
27 82 0
27 85 4
27 86 3
27 90 2
27 93 4
28 2 0
28 13 4
28 17 1
28 18 3
28 19 3
28 20 4
28 24 0
28 28 0
28 31 0
28 45 3
29 10 1
29 14 4
29 19 3
29 37 3
29 83 1
29 85 4
29 91 0
29 97 4
29 98 4
29 99 0
30 0 1
30 10 3
30 11 2
30 13 2
30 14 0
30 45 0
30 70 4
30 73 0
30 80 3
30 89 4
31 15 4
31 45 2
31 55 1
31 56 1
31 68 3
31 86 3
31 91 2
31 95 2
31 97 0
31 98 1
32 28 0
32 49 3
32 66 2
32 72 2
32 76 4
32 85 2
32 86 0
32 87 2
32 92 2
32 98 2
33 7 4
33 21 4
33 33 0
33 37 0
33 44 3
33 67 2
33 71 2
33 73 1
33 92 0
33 98 0
34 17 4
34 29 2
34 34 2
34 35 1
34 43 0
34 50 3
34 75 3
34 92 0
34 94 4
34 95 0
35 0 0
35 4 0
35 22 4
35 40 1
35 47 1
35 51 0
35 65 2
35 84 4
35 88 2
35 92 0
36 16 2
36 28 0
36 30 1
36 33 1
36 46 3
36 49 4
36 57 0
36 59 2
36 78 1
36 79 2
37 25 1
37 39 1
37 48 3
37 57 3
37 75 3
37 81 1
37 82 1
37 84 4
37 87 4
37 90 3
38 6 0
38 10 4
38 29 3
38 32 0
38 47 3
38 51 4
38 58 3
38 89 3
38 92 2
38 93 0
39 4 2
39 8 0
39 14 0
39 15 0
39 18 3
39 33 0
39 34 1
39 49 0
39 52 1
39 60 3
40 0 0
40 7 1
40 8 2
40 12 4
40 31 2
40 36 0
40 50 0
40 63 2
40 67 0
40 74 0
41 11 4
41 20 3
41 40 0
41 41 3
41 44 3
41 49 1
41 53 2
41 55 2
41 56 0
41 60 3
42 17 1
42 18 1
42 32 3
42 46 1
42 55 2
42 57 0
42 61 4
42 68 4
42 79 0
42 90 2
43 7 2
43 8 3
43 21 3
43 26 4
43 29 3
43 40 0
43 49 0
43 55 0
43 57 1
43 68 1
44 7 1
44 12 2
44 33 3
44 34 0
44 38 2
44 48 1
44 59 0
44 80 0
44 81 4
44 82 1
45 25 1
45 33 4
45 34 4
45 45 4
45 49 3
45 55 2
45 64 2
45 75 2
45 79 0
45 80 2
46 2 1
46 3 3
46 7 4
46 13 3
46 22 3
46 27 0
46 36 3
46 76 0
46 79 3
46 80 0
47 27 3
47 33 1
47 35 1
47 62 3
47 72 3
47 76 0
47 88 4
47 89 0
47 94 3
47 95 2
48 5 3
48 6 3
48 8 4
48 29 3
48 54 2
48 56 2
48 61 4
48 69 1
48 72 0
48 88 4
49 16 4
49 20 0
49 22 3
49 43 2
49 58 0
49 66 3
49 77 2
49 80 3
49 83 4
49 89 3
50 5 3
50 17 1
50 25 1
50 26 2
50 31 4
50 35 4
50 42 3
50 68 0
50 72 4
50 77 1
51 0 0
51 11 4
51 26 0
51 35 0
51 42 4
51 53 2
51 54 2
51 57 1
51 81 1
51 82 2
52 7 3
52 18 3
52 22 2
52 23 3
52 24 1
52 40 0
52 59 4
52 66 1
52 69 2
52 72 3
53 9 3
53 23 2
53 36 4
53 65 1
53 73 0
53 91 2
53 93 1
53 96 4
53 98 4
53 99 1
54 6 3
54 38 1
54 42 0
54 50 0
54 55 0
54 62 1
54 70 2
54 92 4
54 93 4
54 94 4
55 5 2
55 19 1
55 26 3
55 28 3
55 32 3
55 46 3
55 51 1
55 61 0
55 82 4
55 90 4
56 17 3
56 28 0
56 34 3
56 43 1
56 44 1
56 61 4
56 70 1
56 71 0
56 73 4
56 81 4
57 13 0
57 16 4
57 21 3
57 43 3
57 48 4
57 52 4
57 65 0
57 81 3
57 83 4
57 84 3
58 13 4
58 15 1
58 18 2
58 51 1
58 52 1
58 65 2
58 68 1
58 69 1
58 76 3
58 85 0
59 14 0
59 34 3
59 66 3
59 80 0
59 84 3
59 88 2
59 94 1
59 96 0
59 97 3
59 99 4
60 2 1
60 3 3
60 4 2
60 14 0
60 17 3
60 18 4
60 27 3
60 28 0
60 31 3
60 65 2
61 4 1
61 33 1
61 41 2
61 44 3
61 45 4
61 69 3
61 73 1
61 81 4
61 85 1
61 93 0
62 16 3
62 21 3
62 30 3
62 33 4
62 38 1
62 43 2
62 53 3
62 63 1
62 88 4
62 90 3
63 9 1
63 37 0
63 47 4
63 54 3
63 62 1
63 63 4
63 86 4
63 87 0
63 91 2
63 96 4
64 14 2
64 25 3
64 26 1
64 45 1
64 50 1
64 53 2
64 58 2
64 89 1
64 94 2
64 97 0
65 23 2
65 40 4
65 44 3
65 53 2
65 57 1
65 59 2
65 71 3
65 97 2
65 98 1
65 99 2
66 11 0
66 15 1
66 32 1
66 37 1
66 59 0
66 74 1
66 87 1
66 90 1
66 94 3
66 96 1
67 1 1
67 5 3
67 7 1
67 8 4
67 9 3
67 11 0
67 24 4
67 43 4
67 44 2
67 84 1
68 4 3
68 27 1
68 29 4
68 37 0
68 46 4
68 52 3
68 65 0
68 83 3
68 87 0
68 88 0
69 10 2
69 21 1
69 32 4
69 35 0
69 40 3
69 55 3
69 60 1
69 62 1
69 70 3
69 76 2
70 3 2
70 10 3
70 21 1
70 24 1
70 41 4
70 49 3
70 58 2
70 59 1
70 64 3
70 69 4
71 9 4
71 27 3
71 39 2
71 56 4
71 58 3
71 63 1
71 74 2
71 83 3
71 85 4
71 86 3
72 18 0
72 32 4
72 50 1
72 52 4
72 56 0
72 67 3
72 76 3
72 83 3
72 89 2
72 95 4
73 9 2
73 10 1
73 16 2
73 42 0
73 49 3
73 60 1
73 69 3
73 86 2
73 87 1
73 89 0
74 3 0
74 14 1
74 24 1
74 29 0
74 35 0
74 36 4
74 38 0
74 62 0
74 76 3
74 79 0
75 26 1
75 27 1
75 47 1
75 56 2
75 78 3
75 89 3
75 94 3
75 95 1
75 98 4
75 99 0
76 1 2
76 5 0
76 6 4
76 19 1
76 62 1
76 64 3
76 71 0
76 72 0
76 92 0
76 93 4
77 17 2
77 22 4
77 30 0
77 75 0
77 76 4
77 78 2
77 96 4
77 97 3
77 98 2
77 99 3
78 3 2
78 4 4
78 10 1
78 23 4
78 39 4
78 40 1
78 50 2
78 55 2
78 81 2
78 83 3
79 5 0
79 9 4
79 15 2
79 17 1
79 19 2
79 29 3
79 33 2
79 43 0
79 46 2
79 56 2
80 4 3
80 11 1
80 25 4
80 35 4
80 48 4
80 66 3
80 67 2
80 69 2
80 73 2
80 83 2
81 5 3
81 16 2
81 20 0
81 25 3
81 48 0
81 75 3
81 82 3
81 87 1
81 91 2
81 96 0
82 0 4
82 1 2
82 3 2
82 9 3
82 13 1
82 21 4
82 26 2
82 30 3
82 32 3
82 39 0
83 4 1
83 23 3
83 30 1
83 38 2
83 39 1
83 48 2
83 80 0
83 86 3
83 87 0
83 89 2
84 2 2
84 8 3
84 52 1
84 53 0
84 58 1
84 62 3
84 63 0
84 79 1
84 93 4
84 96 2
85 1 1
85 25 2
85 31 0
85 37 4
85 41 0
85 54 1
85 55 4
85 63 3
85 78 3
85 79 1
86 7 2
86 12 0
86 22 4
86 28 3
86 38 2
86 53 1
86 74 1
86 75 2
86 84 1
86 85 3
87 6 4
87 7 0
87 11 3
87 16 2
87 26 1
87 27 2
87 40 2
87 56 1
87 59 3
87 61 2
88 20 2
88 24 3
88 35 0
88 56 2
88 75 0
88 90 0
88 95 2
88 97 1
88 98 3
88 99 0
89 23 0
89 41 3
89 51 1
89 67 0
89 72 1
89 77 0
89 91 4
89 94 0
89 95 4
89 96 2
90 23 2
90 44 3
90 47 1
90 54 2
90 66 3
90 74 4
90 79 4
90 81 2
90 84 3
90 90 1
91 3 3
91 29 4
91 30 0
91 32 0
91 34 4
91 54 0
91 56 3
91 69 4
91 84 1
91 85 4
92 21 0
92 24 3
92 30 4
92 51 4
92 58 2
92 64 3
92 74 3
92 81 1
92 86 4
92 99 4
93 6 2
93 18 0
93 31 2
93 36 3
93 91 1
93 93 2
93 95 4
93 96 3
93 97 3
93 99 0
94 12 3
94 14 0
94 15 3
94 22 1
94 37 4
94 47 1
94 48 2
94 59 0
94 61 3
94 66 0
95 8 2
95 12 2
95 41 2
95 42 0
95 45 3
95 73 3
95 75 4
95 77 4
95 82 4
95 87 2
96 9 4
96 36 1
96 39 2
96 44 2
96 46 0
96 50 1
96 57 1
96 67 4
96 73 3
96 74 4
97 1 4
97 22 0
97 25 4
97 27 4
97 29 0
97 34 1
97 42 2
97 60 4
97 62 1
97 71 0
98 2 3
98 22 4
98 32 1
98 36 2
98 37 0
98 39 3
98 54 0
98 63 4
98 67 2
98 69 3
99 0 2
99 2 3
99 4 1
99 6 1
99 7 3
99 11 1
99 12 3
99 23 1
99 36 0
99 47 0
